(set-logic QF_BV)
(set-info :smt-lib-version 2.0)
(set-info :category "crafted")
(set-info :status sat)
(declare-fun x_0 () (_ BitVec 16))
(declare-fun x_1 () (_ BitVec 16))
(declare-fun x_2 () (_ BitVec 16))
(declare-fun x_3 () (_ BitVec 16))
(declare-fun x_4 () (_ BitVec 16))
(declare-fun x_5 () (_ BitVec 16))
(declare-fun x_6 () (_ BitVec 16))
(assert (bvsle x_0 (_ bv127 16)))
(assert (bvsle x_1 (_ bv127 16)))
(assert (bvsle x_2 (_ bv127 16)))
(assert (bvsle x_3 (_ bv127 16)))
(assert (bvsle x_4 (_ bv127 16)))
(assert (bvsle x_5 (_ bv127 16)))
(assert (bvsle x_6 (_ bv127 16)))
(assert (bvsge x_0 (_ bv0 16)))
(assert (bvsge x_1 (_ bv0 16)))
(assert (bvsge x_2 (_ bv0 16)))
(assert (bvsge x_3 (_ bv0 16)))
(assert (bvsge x_4 (_ bv0 16)))
(assert (bvsge x_5 (_ bv0 16)))
(assert (bvsge x_6 (_ bv0 16)))
(assert (bvsle (bvadd (bvmul (bvneg (_ bv57 16)) x_0) (bvmul (_ bv2 16) x_1) (bvmul (_ bv2 16) x_2) (bvmul (_ bv2 16) x_3) (bvmul (_ bv2 16) x_4) (bvmul (_ bv2 16) x_5) (bvmul (_ bv2 16) x_6)) (_ bv0 16)))
(assert (bvsle (bvadd (bvmul (_ bv3 16) x_0) (bvmul (bvneg (_ bv56 16)) x_1) (bvmul (_ bv3 16) x_2) (bvmul (_ bv3 16) x_3) (bvmul (_ bv3 16) x_4) (bvmul (_ bv3 16) x_5) (bvmul (_ bv3 16) x_6)) (_ bv0 16)))
(assert (bvsle (bvadd (bvmul (_ bv5 16) x_0) (bvmul (_ bv5 16) x_1) (bvmul (bvneg (_ bv54 16)) x_2) (bvmul (_ bv5 16) x_3) (bvmul (_ bv5 16) x_4) (bvmul (_ bv5 16) x_5) (bvmul (_ bv5 16) x_6)) (_ bv0 16)))
(assert (bvsle (bvadd (bvmul (_ bv7 16) x_0) (bvmul (_ bv7 16) x_1) (bvmul (_ bv7 16) x_2) (bvmul (bvneg (_ bv52 16)) x_3) (bvmul (_ bv7 16) x_4) (bvmul (_ bv7 16) x_5) (bvmul (_ bv7 16) x_6)) (_ bv0 16)))
(assert (bvsle (bvadd (bvmul (_ bv11 16) x_0) (bvmul (_ bv11 16) x_1) (bvmul (_ bv11 16) x_2) (bvmul (_ bv11 16) x_3) (bvmul (bvneg (_ bv48 16)) x_4) (bvmul (_ bv11 16) x_5) (bvmul (_ bv11 16) x_6)) (_ bv0 16)))
(assert (bvsle (bvadd (bvmul (_ bv13 16) x_0) (bvmul (_ bv13 16) x_1) (bvmul (_ bv13 16) x_2) (bvmul (_ bv13 16) x_3) (bvmul (_ bv13 16) x_4) (bvmul (bvneg (_ bv46 16)) x_5) (bvmul (_ bv13 16) x_6)) (_ bv0 16)))
(assert (bvsle (bvadd (bvmul (_ bv17 16) x_0) (bvmul (_ bv17 16) x_1) (bvmul (_ bv17 16) x_2) (bvmul (_ bv17 16) x_3) (bvmul (_ bv17 16) x_4) (bvmul (_ bv17 16) x_5) (bvmul (bvneg (_ bv42 16)) x_6)) (_ bv0 16)))
(assert (bvsge (bvadd x_0 x_1 x_2 x_3 x_4 x_5 x_6) (_ bv1 16)))
(check-sat)
(exit)
